(set-info :smt-lib-version 2.6)
(set-logic QF_FP)
(set-info :source |
Generated by: Chenqi Cui
Generated on: 2026-01-01
Generator: AutoSMTGen
Application: Generating SMT constraints with small solution spaces to make them challenging for SMT solvers
Target solver: Z3, CVC5, Bitwuzla
|)
(set-info :license "https://creativecommons.org/licenses/by/4.0/")
(set-info :category "industrial")
(set-info :status unsat)
; benchmark generated from python API

(declare-fun x10 () (_ FloatingPoint 11 53))
(declare-fun x9 () (_ FloatingPoint 11 53))
(declare-fun x8 () (_ FloatingPoint 11 53))
(declare-fun x7 () (_ FloatingPoint 11 53))
(declare-fun x6 () (_ FloatingPoint 11 53))
(declare-fun x5 () (_ FloatingPoint 11 53))
(declare-fun x4 () (_ FloatingPoint 11 53))
(declare-fun x3 () (_ FloatingPoint 11 53))
(declare-fun x2 () (_ FloatingPoint 11 53))
(declare-fun x1 () (_ FloatingPoint 11 53))
(declare-fun x0 () (_ FloatingPoint 11 53))
(assert
 (let ((?x21 (fp.add roundNearestTiesToEven (fp.mul roundNearestTiesToEven (fp #b0 #b10000000010 #x2dbe78638df6d) x0) (fp.mul roundNearestTiesToEven (fp #b1 #b10000000100 #xfb7c8edc22621) x1))))
 (let ((?x24 (fp.add roundNearestTiesToEven ?x21 (fp.mul roundNearestTiesToEven (fp #b0 #b10000000101 #x10c6114a67ad4) x2))))
 (let ((?x27 (fp.add roundNearestTiesToEven ?x24 (fp.mul roundNearestTiesToEven (fp #b1 #b10000000011 #xc281dd67884b3) x3))))
 (let ((?x30 (fp.add roundNearestTiesToEven ?x27 (fp.mul roundNearestTiesToEven (fp #b1 #b10000000011 #x28c44566c2428) x4))))
 (let ((?x33 (fp.add roundNearestTiesToEven ?x30 (fp.mul roundNearestTiesToEven (fp #b1 #b10000000100 #x942794fa3d334) x5))))
 (let ((?x36 (fp.add roundNearestTiesToEven ?x33 (fp.mul roundNearestTiesToEven (fp #b1 #b10000000101 #x5b8325c0b3856) x6))))
 (let ((?x39 (fp.add roundNearestTiesToEven ?x36 (fp.mul roundNearestTiesToEven (fp #b1 #b10000000101 #x586494a6bf7a4) x7))))
 (let ((?x42 (fp.add roundNearestTiesToEven ?x39 (fp.mul roundNearestTiesToEven (fp #b1 #b10000000100 #x50e192eac5ecd) x8))))
 (let ((?x45 (fp.add roundNearestTiesToEven ?x42 (fp.mul roundNearestTiesToEven (fp #b0 #b10000000101 #x74d0887a1f4e0) x9))))
 (let ((?x48 (fp.add roundNearestTiesToEven ?x45 (fp.mul roundNearestTiesToEven (fp #b0 #b10000000100 #x5c701c4b5bca9) x10))))
 (fp.leq ?x48 (fp #b1 #b10000000010 #x43542839827f8)))))))))))))
(assert
 (let ((?x72 (fp.add roundNearestTiesToEven (fp.mul roundNearestTiesToEven (fp #b1 #b10000000100 #xa059d3ef9abea) x0) (fp.mul roundNearestTiesToEven (fp #b1 #b10000000100 #xe961c53c296d7) x1))))
 (let ((?x75 (fp.add roundNearestTiesToEven ?x72 (fp.mul roundNearestTiesToEven (fp #b0 #b10000000101 #x225f25420e3b4) x2))))
 (let ((?x78 (fp.add roundNearestTiesToEven ?x75 (fp.mul roundNearestTiesToEven (fp #b1 #b01111111111 #x4cf047fe3c7a3) x3))))
 (let ((?x81 (fp.add roundNearestTiesToEven ?x78 (fp.mul roundNearestTiesToEven (fp #b1 #b10000000100 #xf1e8a33ea2d34) x4))))
 (let ((?x84 (fp.add roundNearestTiesToEven ?x81 (fp.mul roundNearestTiesToEven (fp #b1 #b10000000101 #x4368c880bc0c0) x5))))
 (let ((?x87 (fp.add roundNearestTiesToEven ?x84 (fp.mul roundNearestTiesToEven (fp #b0 #b10000000100 #x0a89750d5b695) x6))))
 (let ((?x90 (fp.add roundNearestTiesToEven ?x87 (fp.mul roundNearestTiesToEven (fp #b0 #b10000000011 #x1ab1c5025e2b3) x7))))
 (let ((?x93 (fp.add roundNearestTiesToEven ?x90 (fp.mul roundNearestTiesToEven (fp #b0 #b10000000101 #x08760f4ab4d8e) x8))))
 (let ((?x96 (fp.add roundNearestTiesToEven ?x93 (fp.mul roundNearestTiesToEven (fp #b1 #b10000000101 #x30471a742540b) x9))))
 (let ((?x99 (fp.add roundNearestTiesToEven ?x96 (fp.mul roundNearestTiesToEven (fp #b1 #b10000000011 #xdd3749b7dc1c8) x10))))
 (fp.leq ?x99 (fp #b1 #b10000000100 #x60bec3dcc1ae2)))))))))))))
(assert
 (let ((?x106 (fp.add roundNearestTiesToEven (fp.mul roundNearestTiesToEven (fp #b0 #b10000000011 #x641449a1cc061) x0) (fp.mul roundNearestTiesToEven (fp #b1 #b10000000011 #x3c4b2bfe5dbae) x1))))
 (let ((?x109 (fp.add roundNearestTiesToEven ?x106 (fp.mul roundNearestTiesToEven (fp #b0 #b10000000101 #x347a5743df0d8) x2))))
 (let ((?x112 (fp.add roundNearestTiesToEven ?x109 (fp.mul roundNearestTiesToEven (fp #b1 #b10000000011 #xe8330f79f1c0d) x3))))
 (let ((?x115 (fp.add roundNearestTiesToEven ?x112 (fp.mul roundNearestTiesToEven (fp #b1 #b10000000101 #x2b518e26ff12c) x4))))
 (let ((?x118 (fp.add roundNearestTiesToEven ?x115 (fp.mul roundNearestTiesToEven (fp #b0 #b10000000001 #x8c33c053b737a) x5))))
 (let ((?x121 (fp.add roundNearestTiesToEven ?x118 (fp.mul roundNearestTiesToEven (fp #b0 #b10000000101 #x5c9f8d782fa03) x6))))
 (let ((?x124 (fp.add roundNearestTiesToEven ?x121 (fp.mul roundNearestTiesToEven (fp #b1 #b10000000101 #x1eb84b30ce02c) x7))))
 (let ((?x127 (fp.add roundNearestTiesToEven ?x124 (fp.mul roundNearestTiesToEven (fp #b1 #b10000000101 #x8ef902e650fc3) x8))))
 (let ((?x130 (fp.add roundNearestTiesToEven ?x127 (fp.mul roundNearestTiesToEven (fp #b0 #b10000000100 #x48d61f7cdcfcf) x9))))
 (let ((?x133 (fp.add roundNearestTiesToEven ?x130 (fp.mul roundNearestTiesToEven (fp #b1 #b10000000100 #x4fb9d3ecbf14b) x10))))
 (fp.leq ?x133 (fp #b1 #b10000000101 #x1c8427db66d3d)))))))))))))
(assert
 (let ((?x140 (fp.add roundNearestTiesToEven (fp.mul roundNearestTiesToEven (fp #b0 #b01111111101 #xa5151940cd418) x0) (fp.mul roundNearestTiesToEven (fp #b1 #b10000000011 #x7eb1b14e7eb04) x1))))
 (let ((?x143 (fp.add roundNearestTiesToEven ?x140 (fp.mul roundNearestTiesToEven (fp #b1 #b10000000100 #x22133c87f7453) x2))))
 (let ((?x146 (fp.add roundNearestTiesToEven ?x143 (fp.mul roundNearestTiesToEven (fp #b0 #b10000000101 #x04bd83e6a4dac) x3))))
 (let ((?x149 (fp.add roundNearestTiesToEven ?x146 (fp.mul roundNearestTiesToEven (fp #b1 #b10000000000 #x63f55ced398fd) x4))))
 (let ((?x152 (fp.add roundNearestTiesToEven ?x149 (fp.mul roundNearestTiesToEven (fp #b0 #b10000000101 #x22364cbae49cb) x5))))
 (let ((?x155 (fp.add roundNearestTiesToEven ?x152 (fp.mul roundNearestTiesToEven (fp #b1 #b10000000001 #x9a469220abceb) x6))))
 (let ((?x158 (fp.add roundNearestTiesToEven ?x155 (fp.mul roundNearestTiesToEven (fp #b1 #b10000000011 #x745ce551def71) x7))))
 (let ((?x161 (fp.add roundNearestTiesToEven ?x158 (fp.mul roundNearestTiesToEven (fp #b0 #b10000000100 #xbad841b9c7f8b) x8))))
 (let ((?x164 (fp.add roundNearestTiesToEven ?x161 (fp.mul roundNearestTiesToEven (fp #b0 #b10000000001 #x24f98a2a2da3e) x9))))
 (let ((?x167 (fp.add roundNearestTiesToEven ?x164 (fp.mul roundNearestTiesToEven (fp #b1 #b10000000010 #xdc4e88e119a0f) x10))))
 (fp.leq ?x167 (fp #b0 #b10000000101 #x3f29ee0b7168c)))))))))))))
(assert
 (let ((?x174 (fp.add roundNearestTiesToEven (fp.mul roundNearestTiesToEven (fp #b1 #b10000000011 #xc6eb3bd74047c) x0) (fp.mul roundNearestTiesToEven (fp #b1 #b10000000000 #xd0b2877e49f74) x1))))
 (let ((?x177 (fp.add roundNearestTiesToEven ?x174 (fp.mul roundNearestTiesToEven (fp #b1 #b10000000011 #x11d5bd1e1179a) x2))))
 (let ((?x180 (fp.add roundNearestTiesToEven ?x177 (fp.mul roundNearestTiesToEven (fp #b1 #b10000000100 #x34287faf4271e) x3))))
 (let ((?x183 (fp.add roundNearestTiesToEven ?x180 (fp.mul roundNearestTiesToEven (fp #b1 #b10000000010 #x07c619f8f006d) x4))))
 (let ((?x186 (fp.add roundNearestTiesToEven ?x183 (fp.mul roundNearestTiesToEven (fp #b1 #b10000000100 #x59af86030caae) x5))))
 (let ((?x189 (fp.add roundNearestTiesToEven ?x186 (fp.mul roundNearestTiesToEven (fp #b0 #b10000000101 #x013f26fa7c7bf) x6))))
 (let ((?x192 (fp.add roundNearestTiesToEven ?x189 (fp.mul roundNearestTiesToEven (fp #b1 #b10000000100 #xcbb0edac2d1a1) x7))))
 (let ((?x195 (fp.add roundNearestTiesToEven ?x192 (fp.mul roundNearestTiesToEven (fp #b1 #b10000000101 #x71c224ac55afd) x8))))
 (let ((?x198 (fp.add roundNearestTiesToEven ?x195 (fp.mul roundNearestTiesToEven (fp #b1 #b10000000011 #x1ae9ef821ce14) x9))))
 (let ((?x201 (fp.add roundNearestTiesToEven ?x198 (fp.mul roundNearestTiesToEven (fp #b0 #b10000000101 #x727ff6077edb3) x10))))
 (fp.leq ?x201 (fp #b1 #b10000000100 #x4b7a82bf9414c)))))))))))))
(assert
 (let ((?x208 (fp.add roundNearestTiesToEven (fp.mul roundNearestTiesToEven (fp #b1 #b10000000100 #x013c12a02e652) x0) (fp.mul roundNearestTiesToEven (fp #b1 #b10000000000 #xca828555103d8) x1))))
 (let ((?x211 (fp.add roundNearestTiesToEven ?x208 (fp.mul roundNearestTiesToEven (fp #b0 #b10000000100 #x3dbf05b2a5db8) x2))))
 (let ((?x214 (fp.add roundNearestTiesToEven ?x211 (fp.mul roundNearestTiesToEven (fp #b0 #b10000000101 #x8a99aefdc2d0e) x3))))
 (let ((?x217 (fp.add roundNearestTiesToEven ?x214 (fp.mul roundNearestTiesToEven (fp #b0 #b10000000011 #x0d8ab3980f2ec) x4))))
 (let ((?x220 (fp.add roundNearestTiesToEven ?x217 (fp.mul roundNearestTiesToEven (fp #b0 #b10000000101 #x36338b07edbc6) x5))))
 (let ((?x223 (fp.add roundNearestTiesToEven ?x220 (fp.mul roundNearestTiesToEven (fp #b0 #b01111111110 #xd50993cbe9070) x6))))
 (let ((?x226 (fp.add roundNearestTiesToEven ?x223 (fp.mul roundNearestTiesToEven (fp #b0 #b10000000100 #x7075b8f51177c) x7))))
 (let ((?x229 (fp.add roundNearestTiesToEven ?x226 (fp.mul roundNearestTiesToEven (fp #b1 #b10000000011 #x2eafa06846440) x8))))
 (let ((?x232 (fp.add roundNearestTiesToEven ?x229 (fp.mul roundNearestTiesToEven (fp #b0 #b10000000000 #xdc0464973d310) x9))))
 (let ((?x235 (fp.add roundNearestTiesToEven ?x232 (fp.mul roundNearestTiesToEven (fp #b1 #b10000000101 #x9aa5c65af71bc) x10))))
 (fp.leq ?x235 (fp #b0 #b10000000010 #xf02976f2f9750)))))))))))))
(assert
 (let ((?x242 (fp.add roundNearestTiesToEven (fp.mul roundNearestTiesToEven (fp #b1 #b10000000011 #x2ef552f8b0b98) x0) (fp.mul roundNearestTiesToEven (fp #b0 #b10000000011 #x9c458b0a9bd44) x1))))
 (let ((?x245 (fp.add roundNearestTiesToEven ?x242 (fp.mul roundNearestTiesToEven (fp #b1 #b10000000101 #x9412f6500f576) x2))))
 (let ((?x248 (fp.add roundNearestTiesToEven ?x245 (fp.mul roundNearestTiesToEven (fp #b1 #b10000000100 #x689ae14ab20c0) x3))))
 (let ((?x251 (fp.add roundNearestTiesToEven ?x248 (fp.mul roundNearestTiesToEven (fp #b1 #b10000000011 #xedcc84aed4fa5) x4))))
 (let ((?x254 (fp.add roundNearestTiesToEven ?x251 (fp.mul roundNearestTiesToEven (fp #b1 #b10000000101 #x341fed9ee3953) x5))))
 (let ((?x257 (fp.add roundNearestTiesToEven ?x254 (fp.mul roundNearestTiesToEven (fp #b1 #b10000000100 #xcec0e5aad356b) x6))))
 (let ((?x260 (fp.add roundNearestTiesToEven ?x257 (fp.mul roundNearestTiesToEven (fp #b0 #b10000000011 #xb984bd1e67b91) x7))))
 (let ((?x263 (fp.add roundNearestTiesToEven ?x260 (fp.mul roundNearestTiesToEven (fp #b0 #b10000000011 #xd06b84393d27c) x8))))
 (let ((?x266 (fp.add roundNearestTiesToEven ?x263 (fp.mul roundNearestTiesToEven (fp #b0 #b10000000011 #x830ad146993df) x9))))
 (let ((?x269 (fp.add roundNearestTiesToEven ?x266 (fp.mul roundNearestTiesToEven (fp #b0 #b10000000100 #xa68db80be62b5) x10))))
 (fp.leq ?x269 (fp #b1 #b10000000010 #xeb6d0713527e8)))))))))))))
(assert
 (let ((?x276 (fp.add roundNearestTiesToEven (fp.mul roundNearestTiesToEven (fp #b1 #b10000000000 #x94a966eccbd78) x0) (fp.mul roundNearestTiesToEven (fp #b0 #b10000000011 #xababd678bf1c0) x1))))
 (let ((?x279 (fp.add roundNearestTiesToEven ?x276 (fp.mul roundNearestTiesToEven (fp #b1 #b10000000100 #xdac4ae09281e0) x2))))
 (let ((?x282 (fp.add roundNearestTiesToEven ?x279 (fp.mul roundNearestTiesToEven (fp #b0 #b10000000011 #xcaf8211df1151) x3))))
 (let ((?x285 (fp.add roundNearestTiesToEven ?x282 (fp.mul roundNearestTiesToEven (fp #b0 #b10000000101 #x0b2a2b234c813) x4))))
 (let ((?x288 (fp.add roundNearestTiesToEven ?x285 (fp.mul roundNearestTiesToEven (fp #b1 #b10000000010 #x376ed9876b426) x5))))
 (let ((?x291 (fp.add roundNearestTiesToEven ?x288 (fp.mul roundNearestTiesToEven (fp #b1 #b10000000100 #x131624bfe67f8) x6))))
 (let ((?x294 (fp.add roundNearestTiesToEven ?x291 (fp.mul roundNearestTiesToEven (fp #b0 #b10000000010 #x768e03d31d517) x7))))
 (let ((?x297 (fp.add roundNearestTiesToEven ?x294 (fp.mul roundNearestTiesToEven (fp #b0 #b10000000101 #x6c493ef39a93a) x8))))
 (let ((?x300 (fp.add roundNearestTiesToEven ?x297 (fp.mul roundNearestTiesToEven (fp #b0 #b10000000100 #xc46229253e1df) x9))))
 (let ((?x303 (fp.add roundNearestTiesToEven ?x300 (fp.mul roundNearestTiesToEven (fp #b1 #b10000000010 #x4d87f0033e0e3) x10))))
 (fp.leq ?x303 (fp #b1 #b10000000011 #x668ad4b9e4e70)))))))))))))
(assert
 (let ((?x310 (fp.add roundNearestTiesToEven (fp.mul roundNearestTiesToEven (fp #b0 #b10000000101 #x529a79fd3e6ca) x0) (fp.mul roundNearestTiesToEven (fp #b0 #b10000000101 #x930ae1ad88a3a) x1))))
 (let ((?x313 (fp.add roundNearestTiesToEven ?x310 (fp.mul roundNearestTiesToEven (fp #b0 #b10000000100 #x455201977c294) x2))))
 (let ((?x316 (fp.add roundNearestTiesToEven ?x313 (fp.mul roundNearestTiesToEven (fp #b0 #b10000000101 #x549ccf5c260d1) x3))))
 (let ((?x319 (fp.add roundNearestTiesToEven ?x316 (fp.mul roundNearestTiesToEven (fp #b0 #b10000000100 #x5fbb81f804a69) x4))))
 (let ((?x322 (fp.add roundNearestTiesToEven ?x319 (fp.mul roundNearestTiesToEven (fp #b1 #b10000000101 #x3a9d5e1b2ad41) x5))))
 (let ((?x325 (fp.add roundNearestTiesToEven ?x322 (fp.mul roundNearestTiesToEven (fp #b1 #b10000000001 #x675fa0a4b17ab) x6))))
 (let ((?x328 (fp.add roundNearestTiesToEven ?x325 (fp.mul roundNearestTiesToEven (fp #b1 #b10000000101 #x702dd919c7ec9) x7))))
 (let ((?x331 (fp.add roundNearestTiesToEven ?x328 (fp.mul roundNearestTiesToEven (fp #b0 #b10000000100 #xabddfdc148dff) x8))))
 (let ((?x334 (fp.add roundNearestTiesToEven ?x331 (fp.mul roundNearestTiesToEven (fp #b1 #b10000000100 #xa6154066e3bb4) x9))))
 (let ((?x337 (fp.add roundNearestTiesToEven ?x334 (fp.mul roundNearestTiesToEven (fp #b1 #b10000000011 #x9bafa6dc8512b) x10))))
 (fp.leq ?x337 (fp #b0 #b10000000100 #x5aa0fe3d04b60)))))))))))))
(assert
 (let ((?x344 (fp.add roundNearestTiesToEven (fp.mul roundNearestTiesToEven (fp #b1 #b10000000101 #x066b10b31455f) x0) (fp.mul roundNearestTiesToEven (fp #b1 #b10000000010 #x71291f4881662) x1))))
 (let ((?x347 (fp.add roundNearestTiesToEven ?x344 (fp.mul roundNearestTiesToEven (fp #b0 #b10000000100 #x49ea3df823b7a) x2))))
 (let ((?x350 (fp.add roundNearestTiesToEven ?x347 (fp.mul roundNearestTiesToEven (fp #b1 #b10000000101 #x288fd71d607fc) x3))))
 (let ((?x353 (fp.add roundNearestTiesToEven ?x350 (fp.mul roundNearestTiesToEven (fp #b1 #b10000000101 #x250719269fc7e) x4))))
 (let ((?x356 (fp.add roundNearestTiesToEven ?x353 (fp.mul roundNearestTiesToEven (fp #b0 #b10000000101 #x4b8c77d6c0f5b) x5))))
 (let ((?x359 (fp.add roundNearestTiesToEven ?x356 (fp.mul roundNearestTiesToEven (fp #b0 #b10000000100 #x5c767b80a6418) x6))))
 (let ((?x362 (fp.add roundNearestTiesToEven ?x359 (fp.mul roundNearestTiesToEven (fp #b1 #b10000000100 #x0e2ca9865ca79) x7))))
 (let ((?x365 (fp.add roundNearestTiesToEven ?x362 (fp.mul roundNearestTiesToEven (fp #b1 #b10000000011 #xb34f274a8c3b9) x8))))
 (let ((?x368 (fp.add roundNearestTiesToEven ?x365 (fp.mul roundNearestTiesToEven (fp #b0 #b10000000100 #x3565ac666e076) x9))))
 (let ((?x371 (fp.add roundNearestTiesToEven ?x368 (fp.mul roundNearestTiesToEven (fp #b0 #b10000000100 #x9799a9389b39f) x10))))
 (fp.leq ?x371 (fp #b0 #b01111111111 #xd3ffc4cccc100)))))))))))))
(assert
 (let ((?x378 (fp.add roundNearestTiesToEven (fp.mul roundNearestTiesToEven (fp #b0 #b10000000101 #x755713f2fd931) x0) (fp.mul roundNearestTiesToEven (fp #b1 #b10000000101 #x32c960401b265) x1))))
 (let ((?x381 (fp.add roundNearestTiesToEven ?x378 (fp.mul roundNearestTiesToEven (fp #b1 #b10000000010 #x15859ed1d7352) x2))))
 (let ((?x384 (fp.add roundNearestTiesToEven ?x381 (fp.mul roundNearestTiesToEven (fp #b1 #b10000000100 #x36d130e9239e8) x3))))
 (let ((?x387 (fp.add roundNearestTiesToEven ?x384 (fp.mul roundNearestTiesToEven (fp #b0 #b10000000100 #xf195da90f4213) x4))))
 (let ((?x390 (fp.add roundNearestTiesToEven ?x387 (fp.mul roundNearestTiesToEven (fp #b0 #b10000000100 #x85c7a8c4769c7) x5))))
 (let ((?x393 (fp.add roundNearestTiesToEven ?x390 (fp.mul roundNearestTiesToEven (fp #b1 #b10000000010 #x8e30b4bea2ac9) x6))))
 (let ((?x396 (fp.add roundNearestTiesToEven ?x393 (fp.mul roundNearestTiesToEven (fp #b0 #b10000000101 #x5d2393b53ef50) x7))))
 (let ((?x399 (fp.add roundNearestTiesToEven ?x396 (fp.mul roundNearestTiesToEven (fp #b1 #b10000000101 #x9605485e03c85) x8))))
 (let ((?x402 (fp.add roundNearestTiesToEven ?x399 (fp.mul roundNearestTiesToEven (fp #b1 #b10000000101 #x0855780553354) x9))))
 (let ((?x405 (fp.add roundNearestTiesToEven ?x402 (fp.mul roundNearestTiesToEven (fp #b0 #b10000000101 #x3612cc23afb38) x10))))
 (fp.leq ?x405 (fp #b0 #b10000000100 #x70f3432fb4380)))))))))))))
(assert
 (let ((?x412 (fp.add roundNearestTiesToEven (fp.mul roundNearestTiesToEven (fp #b1 #b10000000100 #x865613a2d7be4) x0) (fp.mul roundNearestTiesToEven (fp #b0 #b10000000100 #xbd9b06047e512) x1))))
 (let ((?x415 (fp.add roundNearestTiesToEven ?x412 (fp.mul roundNearestTiesToEven (fp #b1 #b10000000101 #x72f343333820e) x2))))
 (let ((?x418 (fp.add roundNearestTiesToEven ?x415 (fp.mul roundNearestTiesToEven (fp #b1 #b10000000101 #x120fe51be8ced) x3))))
 (let ((?x421 (fp.add roundNearestTiesToEven ?x418 (fp.mul roundNearestTiesToEven (fp #b0 #b10000000100 #xeec02ae98702d) x4))))
 (let ((?x424 (fp.add roundNearestTiesToEven ?x421 (fp.mul roundNearestTiesToEven (fp #b1 #b10000000100 #x4c9e6737962ce) x5))))
 (let ((?x427 (fp.add roundNearestTiesToEven ?x424 (fp.mul roundNearestTiesToEven (fp #b1 #b10000000101 #x0fb7f72f901a9) x6))))
 (let ((?x430 (fp.add roundNearestTiesToEven ?x427 (fp.mul roundNearestTiesToEven (fp #b1 #b10000000100 #x89f9b1bbd4e8d) x7))))
 (let ((?x433 (fp.add roundNearestTiesToEven ?x430 (fp.mul roundNearestTiesToEven (fp #b0 #b10000000011 #x10e09f5360f0d) x8))))
 (let ((?x436 (fp.add roundNearestTiesToEven ?x433 (fp.mul roundNearestTiesToEven (fp #b1 #b10000000100 #x957bdfdea0de4) x9))))
 (let ((?x439 (fp.add roundNearestTiesToEven ?x436 (fp.mul roundNearestTiesToEven (fp #b1 #b10000000100 #xef5e5bdc2b037) x10))))
 (fp.leq ?x439 (fp #b0 #b10000000100 #x965ddafd227ec)))))))))))))
(assert
 (fp.geq x0 (fp #b1 #b10000100000 #x2a05f20000000)))
(assert
 (fp.leq x0 (fp #b0 #b10000100000 #x2a05f20000000)))
(assert
 (fp.geq x1 (fp #b1 #b10000100000 #x2a05f20000000)))
(assert
 (fp.leq x1 (fp #b0 #b10000100000 #x2a05f20000000)))
(assert
 (fp.geq x2 (fp #b1 #b10000100000 #x2a05f20000000)))
(assert
 (fp.leq x2 (fp #b0 #b10000100000 #x2a05f20000000)))
(assert
 (fp.geq x3 (fp #b1 #b10000100000 #x2a05f20000000)))
(assert
 (fp.leq x3 (fp #b0 #b10000100000 #x2a05f20000000)))
(assert
 (fp.geq x4 (fp #b1 #b10000100000 #x2a05f20000000)))
(assert
 (fp.leq x4 (fp #b0 #b10000100000 #x2a05f20000000)))
(assert
 (fp.geq x5 (fp #b1 #b10000100000 #x2a05f20000000)))
(assert
 (fp.leq x5 (fp #b0 #b10000100000 #x2a05f20000000)))
(assert
 (fp.geq x6 (fp #b1 #b10000100000 #x2a05f20000000)))
(assert
 (fp.leq x6 (fp #b0 #b10000100000 #x2a05f20000000)))
(assert
 (fp.geq x7 (fp #b1 #b10000100000 #x2a05f20000000)))
(assert
 (fp.leq x7 (fp #b0 #b10000100000 #x2a05f20000000)))
(assert
 (fp.geq x8 (fp #b1 #b10000100000 #x2a05f20000000)))
(assert
 (fp.leq x8 (fp #b0 #b10000100000 #x2a05f20000000)))
(assert
 (fp.geq x9 (fp #b1 #b10000100000 #x2a05f20000000)))
(assert
 (fp.leq x9 (fp #b0 #b10000100000 #x2a05f20000000)))
(assert
 (fp.geq x10 (fp #b1 #b10000100000 #x2a05f20000000)))
(assert
 (fp.leq x10 (fp #b0 #b10000100000 #x2a05f20000000)))
(check-sat)
(exit)
